; Options: -q --produce-models --incremental --print-success --lang smt2.6 --arrays-exp
(set-logic ALL)

(declare-fun start!3175 () Bool)

(assert start!3175)

(declare-fun b_free!83 () Bool)

(declare-fun b_next!83 () Bool)

(assert (=> start!3175 (= b_free!83 (not b_next!83))))

(declare-fun tp!125 () Bool)

(declare-fun b_and!825 () Bool)

(assert (=> start!3175 (= tp!125 b_and!825)))

(declare-fun b!18427 () Bool)

(declare-fun res!14863 () Bool)

(declare-fun e!9550 () Bool)

(assert (=> b!18427 (=> (not res!14863) (not e!9550))))

(declare-fun P!5 () Int)

(declare-datatypes ((array!1436 0))(
  ( (array!1437 (arr!630 (Array (_ BitVec 32) (_ FloatingPoint 11 53))) (size!630 (_ BitVec 32))) )
))
(declare-fun a!12 () array!1436)

(declare-fun dynLambda!84 (Int (_ FloatingPoint 11 53)) Bool)

(assert (=> b!18427 (= res!14863 (dynLambda!84 P!5 (select (arr!630 a!12) #b00000000000000000000000000010010)))))

(declare-fun b!18428 () Bool)

(declare-fun res!14858 () Bool)

(assert (=> b!18428 (=> (not res!14858) (not e!9550))))

(assert (=> b!18428 (= res!14858 (dynLambda!84 P!5 (select (arr!630 a!12) #b00000000000000000000000000000111)))))

(declare-fun b!18429 () Bool)

(declare-fun res!14857 () Bool)

(assert (=> b!18429 (=> (not res!14857) (not e!9550))))

(assert (=> b!18429 (= res!14857 (dynLambda!84 P!5 (select (arr!630 a!12) #b00000000000000000000000000000001)))))

(declare-fun b!18430 () Bool)

(declare-fun res!14859 () Bool)

(assert (=> b!18430 (=> (not res!14859) (not e!9550))))

(assert (=> b!18430 (= res!14859 (dynLambda!84 P!5 (select (arr!630 a!12) #b00000000000000000000000000001000)))))

(declare-fun b!18431 () Bool)

(declare-fun res!14868 () Bool)

(assert (=> b!18431 (=> (not res!14868) (not e!9550))))

(assert (=> b!18431 (= res!14868 (dynLambda!84 P!5 (select (arr!630 a!12) #b00000000000000000000000000001011)))))

(declare-fun b!18432 () Bool)

(declare-fun res!14855 () Bool)

(assert (=> b!18432 (=> (not res!14855) (not e!9550))))

(assert (=> b!18432 (= res!14855 (dynLambda!84 P!5 (select (arr!630 a!12) #b00000000000000000000000000001111)))))

(declare-fun b!18433 () Bool)

(declare-fun res!14862 () Bool)

(assert (=> b!18433 (=> (not res!14862) (not e!9550))))

(assert (=> b!18433 (= res!14862 (dynLambda!84 P!5 (select (arr!630 a!12) #b00000000000000000000000000000100)))))

(declare-fun b!18435 () Bool)

(declare-fun res!14861 () Bool)

(assert (=> b!18435 (=> (not res!14861) (not e!9550))))

(assert (=> b!18435 (= res!14861 (dynLambda!84 P!5 (select (arr!630 a!12) #b00000000000000000000000000010000)))))

(declare-fun b!18436 () Bool)

(declare-fun res!14867 () Bool)

(assert (=> b!18436 (=> (not res!14867) (not e!9550))))

(assert (=> b!18436 (= res!14867 (dynLambda!84 P!5 (select (arr!630 a!12) #b00000000000000000000000000000110)))))

(declare-fun b!18437 () Bool)

(declare-fun res!14864 () Bool)

(assert (=> b!18437 (=> (not res!14864) (not e!9550))))

(assert (=> b!18437 (= res!14864 (dynLambda!84 P!5 (select (arr!630 a!12) #b00000000000000000000000000000010)))))

(declare-fun b!18438 () Bool)

(declare-fun res!14870 () Bool)

(assert (=> b!18438 (=> (not res!14870) (not e!9550))))

(assert (=> b!18438 (= res!14870 (dynLambda!84 P!5 (select (arr!630 a!12) #b00000000000000000000000000001010)))))

(declare-fun b!18439 () Bool)

(declare-fun res!14869 () Bool)

(assert (=> b!18439 (=> (not res!14869) (not e!9550))))

(assert (=> b!18439 (= res!14869 (dynLambda!84 P!5 (select (arr!630 a!12) #b00000000000000000000000000001001)))))

(declare-fun b!18440 () Bool)

(declare-fun res!14860 () Bool)

(assert (=> b!18440 (=> (not res!14860) (not e!9550))))

(assert (=> b!18440 (= res!14860 (dynLambda!84 P!5 (select (arr!630 a!12) #b00000000000000000000000000010001)))))

(declare-fun b!18441 () Bool)

(declare-fun res!14874 () Bool)

(assert (=> b!18441 (=> (not res!14874) (not e!9550))))

(assert (=> b!18441 (= res!14874 (dynLambda!84 P!5 (select (arr!630 a!12) #b00000000000000000000000000001101)))))

(declare-fun b!18442 () Bool)

(assert (=> b!18442 (= e!9550 (bvsge #b00000000000000000000000000010011 (size!630 a!12)))))

(declare-fun b!18443 () Bool)

(declare-fun res!14866 () Bool)

(assert (=> b!18443 (=> (not res!14866) (not e!9550))))

(assert (=> b!18443 (= res!14866 (dynLambda!84 P!5 (select (arr!630 a!12) #b00000000000000000000000000001110)))))

(declare-fun b!18444 () Bool)

(declare-fun res!14856 () Bool)

(assert (=> b!18444 (=> (not res!14856) (not e!9550))))

(assert (=> b!18444 (= res!14856 (dynLambda!84 P!5 (select (arr!630 a!12) #b00000000000000000000000000000011)))))

(declare-fun b!18445 () Bool)

(declare-fun res!14873 () Bool)

(assert (=> b!18445 (=> (not res!14873) (not e!9550))))

(assert (=> b!18445 (= res!14873 (dynLambda!84 P!5 (select (arr!630 a!12) #b00000000000000000000000000001100)))))

(declare-fun b!18446 () Bool)

(declare-fun res!14865 () Bool)

(assert (=> b!18446 (=> (not res!14865) (not e!9550))))

(assert (=> b!18446 (= res!14865 (dynLambda!84 P!5 (select (arr!630 a!12) #b00000000000000000000000000000000)))))

(declare-fun b!18434 () Bool)

(declare-fun res!14871 () Bool)

(assert (=> b!18434 (=> (not res!14871) (not e!9550))))

(assert (=> b!18434 (= res!14871 (dynLambda!84 P!5 (select (arr!630 a!12) #b00000000000000000000000000000101)))))

(declare-fun res!14872 () Bool)

(assert (=> start!3175 (=> (not res!14872) (not e!9550))))

(assert (=> start!3175 (= res!14872 (= (size!630 a!12) #b00000000000000000000000000010100))))

(assert (=> start!3175 e!9550))

(declare-fun array_inv!578 (array!1436) Bool)

(assert (=> start!3175 (array_inv!578 a!12)))

(assert (=> start!3175 tp!125))

(assert (= (and start!3175 res!14872) b!18446))

(assert (= (and b!18446 res!14865) b!18429))

(assert (= (and b!18429 res!14857) b!18437))

(assert (= (and b!18437 res!14864) b!18444))

(assert (= (and b!18444 res!14856) b!18433))

(assert (= (and b!18433 res!14862) b!18434))

(assert (= (and b!18434 res!14871) b!18436))

(assert (= (and b!18436 res!14867) b!18428))

(assert (= (and b!18428 res!14858) b!18430))

(assert (= (and b!18430 res!14859) b!18439))

(assert (= (and b!18439 res!14869) b!18438))

(assert (= (and b!18438 res!14870) b!18431))

(assert (= (and b!18431 res!14868) b!18445))

(assert (= (and b!18445 res!14873) b!18441))

(assert (= (and b!18441 res!14874) b!18443))

(assert (= (and b!18443 res!14866) b!18432))

(assert (= (and b!18432 res!14855) b!18435))

(assert (= (and b!18435 res!14861) b!18440))

(assert (= (and b!18440 res!14860) b!18427))

(assert (= (and b!18427 res!14863) b!18442))

(declare-fun b_lambda!8683 () Bool)

(assert (=> (not b_lambda!8683) (not b!18441)))

(declare-fun t!933 () Bool)

(declare-fun tb!743 () Bool)

(assert (=> (and start!3175 (= P!5 P!5) t!933) tb!743))

(declare-fun result!743 () Bool)

(assert (=> tb!743 (= result!743 true)))

(assert (=> b!18441 t!933))

(declare-fun b_and!827 () Bool)

(assert (= b_and!825 (and (=> t!933 result!743) b_and!827)))

(declare-fun b_lambda!8685 () Bool)

(assert (=> (not b_lambda!8685) (not b!18443)))

(declare-fun t!935 () Bool)

(declare-fun tb!745 () Bool)

(assert (=> (and start!3175 (= P!5 P!5) t!935) tb!745))

(declare-fun result!745 () Bool)

(assert (=> tb!745 (= result!745 true)))

(assert (=> b!18443 t!935))

(declare-fun b_and!829 () Bool)

(assert (= b_and!827 (and (=> t!935 result!745) b_and!829)))

(declare-fun b_lambda!8687 () Bool)

(assert (=> (not b_lambda!8687) (not b!18446)))

(declare-fun t!937 () Bool)

(declare-fun tb!747 () Bool)

(assert (=> (and start!3175 (= P!5 P!5) t!937) tb!747))

(declare-fun result!747 () Bool)

(assert (=> tb!747 (= result!747 true)))

(assert (=> b!18446 t!937))

(declare-fun b_and!831 () Bool)

(assert (= b_and!829 (and (=> t!937 result!747) b_and!831)))

(declare-fun b_lambda!8689 () Bool)

(assert (=> (not b_lambda!8689) (not b!18431)))

(declare-fun t!939 () Bool)

(declare-fun tb!749 () Bool)

(assert (=> (and start!3175 (= P!5 P!5) t!939) tb!749))

(declare-fun result!749 () Bool)

(assert (=> tb!749 (= result!749 true)))

(assert (=> b!18431 t!939))

(declare-fun b_and!833 () Bool)

(assert (= b_and!831 (and (=> t!939 result!749) b_and!833)))

(declare-fun b_lambda!8691 () Bool)

(assert (=> (not b_lambda!8691) (not b!18440)))

(declare-fun t!941 () Bool)

(declare-fun tb!751 () Bool)

(assert (=> (and start!3175 (= P!5 P!5) t!941) tb!751))

(declare-fun result!751 () Bool)

(assert (=> tb!751 (= result!751 true)))

(assert (=> b!18440 t!941))

(declare-fun b_and!835 () Bool)

(assert (= b_and!833 (and (=> t!941 result!751) b_and!835)))

(declare-fun b_lambda!8693 () Bool)

(assert (=> (not b_lambda!8693) (not b!18444)))

(declare-fun t!943 () Bool)

(declare-fun tb!753 () Bool)

(assert (=> (and start!3175 (= P!5 P!5) t!943) tb!753))

(declare-fun result!753 () Bool)

(assert (=> tb!753 (= result!753 true)))

(assert (=> b!18444 t!943))

(declare-fun b_and!837 () Bool)

(assert (= b_and!835 (and (=> t!943 result!753) b_and!837)))

(declare-fun b_lambda!8695 () Bool)

(assert (=> (not b_lambda!8695) (not b!18437)))

(declare-fun t!945 () Bool)

(declare-fun tb!755 () Bool)

(assert (=> (and start!3175 (= P!5 P!5) t!945) tb!755))

(declare-fun result!755 () Bool)

(assert (=> tb!755 (= result!755 true)))

(assert (=> b!18437 t!945))

(declare-fun b_and!839 () Bool)

(assert (= b_and!837 (and (=> t!945 result!755) b_and!839)))

(declare-fun b_lambda!8697 () Bool)

(assert (=> (not b_lambda!8697) (not b!18427)))

(declare-fun t!947 () Bool)

(declare-fun tb!757 () Bool)

(assert (=> (and start!3175 (= P!5 P!5) t!947) tb!757))

(declare-fun result!757 () Bool)

(assert (=> tb!757 (= result!757 true)))

(assert (=> b!18427 t!947))

(declare-fun b_and!841 () Bool)

(assert (= b_and!839 (and (=> t!947 result!757) b_and!841)))

(declare-fun b_lambda!8699 () Bool)

(assert (=> (not b_lambda!8699) (not b!18428)))

(declare-fun t!949 () Bool)

(declare-fun tb!759 () Bool)

(assert (=> (and start!3175 (= P!5 P!5) t!949) tb!759))

(declare-fun result!759 () Bool)

(assert (=> tb!759 (= result!759 true)))

(assert (=> b!18428 t!949))

(declare-fun b_and!843 () Bool)

(assert (= b_and!841 (and (=> t!949 result!759) b_and!843)))

(declare-fun b_lambda!8701 () Bool)

(assert (=> (not b_lambda!8701) (not b!18433)))

(declare-fun t!951 () Bool)

(declare-fun tb!761 () Bool)

(assert (=> (and start!3175 (= P!5 P!5) t!951) tb!761))

(declare-fun result!761 () Bool)

(assert (=> tb!761 (= result!761 true)))

(assert (=> b!18433 t!951))

(declare-fun b_and!845 () Bool)

(assert (= b_and!843 (and (=> t!951 result!761) b_and!845)))

(declare-fun b_lambda!8703 () Bool)

(assert (=> (not b_lambda!8703) (not b!18445)))

(declare-fun t!953 () Bool)

(declare-fun tb!763 () Bool)

(assert (=> (and start!3175 (= P!5 P!5) t!953) tb!763))

(declare-fun result!763 () Bool)

(assert (=> tb!763 (= result!763 true)))

(assert (=> b!18445 t!953))

(declare-fun b_and!847 () Bool)

(assert (= b_and!845 (and (=> t!953 result!763) b_and!847)))

(declare-fun b_lambda!8705 () Bool)

(assert (=> (not b_lambda!8705) (not b!18432)))

(declare-fun t!955 () Bool)

(declare-fun tb!765 () Bool)

(assert (=> (and start!3175 (= P!5 P!5) t!955) tb!765))

(declare-fun result!765 () Bool)

(assert (=> tb!765 (= result!765 true)))

(assert (=> b!18432 t!955))

(declare-fun b_and!849 () Bool)

(assert (= b_and!847 (and (=> t!955 result!765) b_and!849)))

(declare-fun b_lambda!8707 () Bool)

(assert (=> (not b_lambda!8707) (not b!18438)))

(declare-fun t!957 () Bool)

(declare-fun tb!767 () Bool)

(assert (=> (and start!3175 (= P!5 P!5) t!957) tb!767))

(declare-fun result!767 () Bool)

(assert (=> tb!767 (= result!767 true)))

(assert (=> b!18438 t!957))

(declare-fun b_and!851 () Bool)

(assert (= b_and!849 (and (=> t!957 result!767) b_and!851)))

(declare-fun b_lambda!8709 () Bool)

(assert (=> (not b_lambda!8709) (not b!18439)))

(declare-fun t!959 () Bool)

(declare-fun tb!769 () Bool)

(assert (=> (and start!3175 (= P!5 P!5) t!959) tb!769))

(declare-fun result!769 () Bool)

(assert (=> tb!769 (= result!769 true)))

(assert (=> b!18439 t!959))

(declare-fun b_and!853 () Bool)

(assert (= b_and!851 (and (=> t!959 result!769) b_and!853)))

(declare-fun b_lambda!8711 () Bool)

(assert (=> (not b_lambda!8711) (not b!18429)))

(declare-fun t!961 () Bool)

(declare-fun tb!771 () Bool)

(assert (=> (and start!3175 (= P!5 P!5) t!961) tb!771))

(declare-fun result!771 () Bool)

(assert (=> tb!771 (= result!771 true)))

(assert (=> b!18429 t!961))

(declare-fun b_and!855 () Bool)

(assert (= b_and!853 (and (=> t!961 result!771) b_and!855)))

(declare-fun b_lambda!8713 () Bool)

(assert (=> (not b_lambda!8713) (not b!18430)))

(declare-fun t!963 () Bool)

(declare-fun tb!773 () Bool)

(assert (=> (and start!3175 (= P!5 P!5) t!963) tb!773))

(declare-fun result!773 () Bool)

(assert (=> tb!773 (= result!773 true)))

(assert (=> b!18430 t!963))

(declare-fun b_and!857 () Bool)

(assert (= b_and!855 (and (=> t!963 result!773) b_and!857)))

(declare-fun b_lambda!8715 () Bool)

(assert (=> (not b_lambda!8715) (not b!18434)))

(declare-fun t!965 () Bool)

(declare-fun tb!775 () Bool)

(assert (=> (and start!3175 (= P!5 P!5) t!965) tb!775))

(declare-fun result!775 () Bool)

(assert (=> tb!775 (= result!775 true)))

(assert (=> b!18434 t!965))

(declare-fun b_and!859 () Bool)

(assert (= b_and!857 (and (=> t!965 result!775) b_and!859)))

(declare-fun b_lambda!8717 () Bool)

(assert (=> (not b_lambda!8717) (not b!18435)))

(declare-fun t!967 () Bool)

(declare-fun tb!777 () Bool)

(assert (=> (and start!3175 (= P!5 P!5) t!967) tb!777))

(declare-fun result!777 () Bool)

(assert (=> tb!777 (= result!777 true)))

(assert (=> b!18435 t!967))

(declare-fun b_and!861 () Bool)

(assert (= b_and!859 (and (=> t!967 result!777) b_and!861)))

(declare-fun b_lambda!8719 () Bool)

(assert (=> (not b_lambda!8719) (not b!18436)))

(declare-fun t!969 () Bool)

(declare-fun tb!779 () Bool)

(assert (=> (and start!3175 (= P!5 P!5) t!969) tb!779))

(declare-fun result!779 () Bool)

(assert (=> tb!779 (= result!779 true)))

(assert (=> b!18436 t!969))

(declare-fun b_and!863 () Bool)

(assert (= b_and!861 (and (=> t!969 result!779) b_and!863)))

(declare-fun m!28897 () Bool)

(assert (=> b!18429 m!28897))

(assert (=> b!18429 m!28897))

(declare-fun m!28899 () Bool)

(assert (=> b!18429 m!28899))

(declare-fun m!28901 () Bool)

(assert (=> b!18427 m!28901))

(assert (=> b!18427 m!28901))

(declare-fun m!28903 () Bool)

(assert (=> b!18427 m!28903))

(declare-fun m!28905 () Bool)

(assert (=> b!18438 m!28905))

(assert (=> b!18438 m!28905))

(declare-fun m!28907 () Bool)

(assert (=> b!18438 m!28907))

(declare-fun m!28909 () Bool)

(assert (=> b!18431 m!28909))

(assert (=> b!18431 m!28909))

(declare-fun m!28911 () Bool)

(assert (=> b!18431 m!28911))

(declare-fun m!28913 () Bool)

(assert (=> b!18445 m!28913))

(assert (=> b!18445 m!28913))

(declare-fun m!28915 () Bool)

(assert (=> b!18445 m!28915))

(declare-fun m!28917 () Bool)

(assert (=> b!18432 m!28917))

(assert (=> b!18432 m!28917))

(declare-fun m!28919 () Bool)

(assert (=> b!18432 m!28919))

(declare-fun m!28921 () Bool)

(assert (=> b!18436 m!28921))

(assert (=> b!18436 m!28921))

(declare-fun m!28923 () Bool)

(assert (=> b!18436 m!28923))

(declare-fun m!28925 () Bool)

(assert (=> b!18441 m!28925))

(assert (=> b!18441 m!28925))

(declare-fun m!28927 () Bool)

(assert (=> b!18441 m!28927))

(declare-fun m!28929 () Bool)

(assert (=> b!18444 m!28929))

(assert (=> b!18444 m!28929))

(declare-fun m!28931 () Bool)

(assert (=> b!18444 m!28931))

(declare-fun m!28933 () Bool)

(assert (=> b!18435 m!28933))

(assert (=> b!18435 m!28933))

(declare-fun m!28935 () Bool)

(assert (=> b!18435 m!28935))

(declare-fun m!28937 () Bool)

(assert (=> b!18428 m!28937))

(assert (=> b!18428 m!28937))

(declare-fun m!28939 () Bool)

(assert (=> b!18428 m!28939))

(declare-fun m!28941 () Bool)

(assert (=> start!3175 m!28941))

(declare-fun m!28943 () Bool)

(assert (=> b!18437 m!28943))

(assert (=> b!18437 m!28943))

(declare-fun m!28945 () Bool)

(assert (=> b!18437 m!28945))

(declare-fun m!28947 () Bool)

(assert (=> b!18439 m!28947))

(assert (=> b!18439 m!28947))

(declare-fun m!28949 () Bool)

(assert (=> b!18439 m!28949))

(declare-fun m!28951 () Bool)

(assert (=> b!18443 m!28951))

(assert (=> b!18443 m!28951))

(declare-fun m!28953 () Bool)

(assert (=> b!18443 m!28953))

(declare-fun m!28955 () Bool)

(assert (=> b!18433 m!28955))

(assert (=> b!18433 m!28955))

(declare-fun m!28957 () Bool)

(assert (=> b!18433 m!28957))

(declare-fun m!28959 () Bool)

(assert (=> b!18434 m!28959))

(assert (=> b!18434 m!28959))

(declare-fun m!28961 () Bool)

(assert (=> b!18434 m!28961))

(declare-fun m!28963 () Bool)

(assert (=> b!18446 m!28963))

(assert (=> b!18446 m!28963))

(declare-fun m!28965 () Bool)

(assert (=> b!18446 m!28965))

(declare-fun m!28967 () Bool)

(assert (=> b!18430 m!28967))

(assert (=> b!18430 m!28967))

(declare-fun m!28969 () Bool)

(assert (=> b!18430 m!28969))

(declare-fun m!28971 () Bool)

(assert (=> b!18440 m!28971))

(assert (=> b!18440 m!28971))

(declare-fun m!28973 () Bool)

(assert (=> b!18440 m!28973))

(push 1)

(assert (not b_lambda!8693))

(assert (not b_lambda!8713))

(assert (not b_lambda!8683))

(assert b_and!863)

(assert (not b_lambda!8709))

(assert (not b_lambda!8695))

(assert (not b_lambda!8697))

(assert (not b_lambda!8719))

(assert (not b_lambda!8715))

(assert (not b_lambda!8707))

(assert (not b_lambda!8701))

(assert (not b_lambda!8691))

(assert (not b_lambda!8689))

(assert (not b_lambda!8717))

(assert (not b_lambda!8685))

(assert (not b_lambda!8699))

(assert (not start!3175))

(assert (not b_lambda!8687))

(assert (not b_lambda!8711))

(assert (not b_lambda!8705))

(assert (not b_lambda!8703))

(assert (not b_next!83))

(check-sat)

(pop 1)

(push 1)

(assert b_and!863)

(assert (not b_next!83))

(check-sat)

(pop 1)

